
Gurobi 11.0.0 (win64) logging started Tue May 21 17:08:59 2024

Set parameter LogFile to value "./Results/StripPacking-ManyRuns/Logs/SU-111-StripPacking-15-0.log"
Set parameter TimeLimit to value 3600
Set parameter Cuts to value 1
Set parameter Presolve to value 1
Set parameter Heuristics to value 1
Set parameter LPWarmStart to value 2
Gurobi Optimizer version 11.0.0 build v11.0.0rc2 (win64 - Windows 10.0 (19045.2))

CPU model: Intel(R) Core(TM) i9-10980XE CPU @ 3.00GHz, instruction set [SSE2|AVX|AVX2|AVX512]
Thread count: 18 physical cores, 36 logical processors, using up to 18 threads

Optimize a model with 1380 rows, 451 columns and 3390 nonzeros
Model fingerprint: 0x46535729
Variable types: 31 continuous, 420 integer (420 binary)
Coefficient statistics:
  Matrix range     [1e+00, 1e+04]
  Objective range  [1e+00, 1e+00]
  Bounds range     [1e+00, 1e+04]
  RHS range        [1e+00, 1e+04]

Warning: Completing partial solution with 420 unfixed non-continuous variables out of 420
User MIP start produced solution with objective 72 (0.00s)
User MIP start produced solution with objective 72 (0.00s)
Loaded user MIP start with objective 72

Presolve removed 210 rows and 0 columns
Presolve time: 0.00s
Presolved: 1170 rows, 451 columns, 3554 nonzeros
Variable types: 31 continuous, 420 integer (420 binary)

Root relaxation: objective 3.700000e+01, 268 iterations, 0.00 seconds (0.00 work units)

    Nodes    |    Current Node    |     Objective Bounds      |     Work
 Expl Unexpl |  Obj  Depth IntInf | Incumbent    BestBd   Gap | It/Node Time

     0     0   37.00000    0   19   72.00000   37.00000  48.6%     -    0s
H    0     0                      70.0000000   37.00000  47.1%     -    0s
H    0     0                      65.0000000   37.00000  43.1%     -    0s
H    0     0                      63.0000000   37.00000  41.3%     -    0s
H    0     0                      61.0000000   37.00000  39.3%     -    0s
     0     0   37.00000    0   63   61.00000   37.00000  39.3%     -    0s
     0     0   37.00000    0   54   61.00000   37.00000  39.3%     -    0s
H    0     0                      58.0000000   37.00000  36.2%     -    0s
     0     0   37.00000    0   24   58.00000   37.00000  36.2%     -    0s
     0     0   37.00000    0   26   58.00000   37.00000  36.2%     -    0s
     0     0   37.00000    0   33   58.00000   37.00000  36.2%     -    0s
     0     0   37.00000    0   39   58.00000   37.00000  36.2%     -    0s
H    0     0                      57.0000000   37.00000  35.1%     -    0s
     0     0   37.00000    0   20   57.00000   37.00000  35.1%     -    0s
     0     0   37.00000    0   20   57.00000   37.00000  35.1%     -    0s
H    0     0                      55.0000000   37.00000  32.7%     -    0s
     0     0   37.00000    0   28   55.00000   37.00000  32.7%     -    0s
     0     0   37.00000    0   28   55.00000   37.00000  32.7%     -    0s
     0     2   37.00000    0   26   55.00000   37.00000  32.7%     -    0s
H   85   103                      52.0000000   37.00000  28.8%  21.1    0s
H  139   121                      50.0000000   37.00000  26.0%  16.5    0s
  1672  1205   37.00000   29   45   50.00000   37.00000  26.0%  17.2    5s
H 2310  1413                      49.0000000   37.00000  24.5%  18.0    6s
H 2833  1708                      49.0000000   37.00000  24.5%  17.9    7s
  5059  2192   37.00000   21   41   49.00000   37.00000  24.5%  19.8   10s
H 5723  2206                      48.0000000   37.00000  22.9%  23.7   14s
  6269  2047     cutoff   49        48.00000   37.00000  22.9%  26.1   15s
  8327  2262   47.00000   26   42   48.00000   37.00000  22.9%  33.3   21s
 11013  2123   47.00000   30   40   48.00000   37.00000  22.9%  38.5   25s
 13453  2439   46.00000   32   62   48.00000   37.00000  22.9%  40.5   30s
 15807  3218   38.00000   28   73   48.00000   37.00000  22.9%  41.9   36s
 19271  3398 infeasible   42        48.00000   37.00000  22.9%  44.3   42s
 19407  3401   41.00000   25   36   48.00000   37.00000  22.9%  44.4   45s
*20991  2838              37      47.0000000   37.00000  21.3%  45.1   49s
 21501  2788     cutoff   33        47.00000   37.00000  21.3%  45.1   52s
 23003  2861   45.00000   27   46   47.00000   37.00000  21.3%  46.1   55s
 23851  3200 infeasible   26        47.00000   37.00000  21.3%  46.8   62s
H24539  3200                      47.0000000   37.00000  21.3%  47.1   63s
 28768  3203   38.00000   23   45   47.00000   37.00000  21.3%  49.7   66s
 29286  3287   46.00000   33   20   47.00000   37.00000  21.3%  49.8   71s
 29867  3290 infeasible   33        47.00000   37.00000  21.3%  49.9   77s
 30605  3288 infeasible   23        47.00000   37.00000  21.3%  50.1   81s
 31771  3368   46.00000   35   34   47.00000   37.00000  21.3%  50.3   89s
 32272  3138 infeasible   22        47.00000   37.00000  21.3%  50.4   91s
 34084  3140 infeasible   26        47.00000   37.00000  21.3%  50.2   95s
 36348  2767 infeasible   33        47.00000   37.00000  21.3%  49.7  103s
 37033  2629   43.00000   25   52   47.00000   38.00000  19.1%  49.6  105s
 39262  2642   43.00000   33   34   47.00000   41.00000  12.8%  48.8  113s
 39285  2420   43.00000   33   22   47.00000   41.00000  12.8%  48.8  117s
 42168  2421   46.00000   26   50   47.00000   42.00000  10.6%  48.0  122s
 45351  2081 infeasible   27        47.00000   43.00000  8.51%  47.3  125s
 45723  2113   45.00000   22   33   47.00000   45.00000  4.26%  47.2  134s
 46062  2095 infeasible   25        47.00000   45.00000  4.26%  47.2  139s
 46517  2124   45.00000   26   44   47.00000   45.00000  4.26%  47.1  143s
 48957  2174   46.00000   34   60   47.00000   45.00000  4.26%  46.3  148s
 49672  1462   46.00000   35   62   47.00000   45.00000  4.26%  46.4  154s
 53988  1443   46.00000   32   40   47.00000   45.00000  4.26%  45.6  159s
 54630  1210 infeasible   36        47.00000   45.00000  4.26%  45.6  167s
 59058  1199 infeasible   28        47.00000   46.00000  2.13%  45.1  175s
 59105   543 infeasible   27        47.00000   46.00000  2.13%  45.1  180s
 62883   537   46.00000   32   23   47.00000   46.00000  2.13%  44.7  185s
 63181   443     cutoff   33        47.00000   46.00000  2.13%  44.6  190s
 66909   448   46.00000   37   36   47.00000   46.00000  2.13%  44.5  195s
 69085   321   46.00000   27   45   47.00000   46.00000  2.13%  44.1  202s
 69107    87   46.00000   28   29   47.00000   46.00000  2.13%  44.1  206s
 71055     0   46.00000   26   40   47.00000   46.00000  2.13%  43.9  212s

Cutting planes:
  Learned: 4484
  Gomory: 9
  Cover: 78
  Implied bound: 7
  Clique: 3
  MIR: 124
  Flow cover: 224
  RLT: 66
  Relax-and-lift: 58
  PSD: 1

Explored 71904 nodes (3149028 simplex iterations) in 212.60 seconds (211.19 work units)
Thread count was 18 (of 36 available processors)

Solution count 10: 47 47 47 ... 57

Optimal solution found (tolerance 1.00e-04)
Best objective 4.700000000000e+01, best bound 4.700000000000e+01, gap 0.0000%

Gurobi 11.0.0 (win64) logging started Tue Jun 18 09:33:53 2024

Set parameter LogFile to value "./Results/StripPacking-ManyRuns/Logs/SU-111-StripPacking-15-0.log"
Set parameter TimeLimit to value 3600
Set parameter Cuts to value 1
Set parameter Presolve to value 1
Set parameter Heuristics to value 1
Set parameter LPWarmStart to value 2
Gurobi Optimizer version 11.0.0 build v11.0.0rc2 (win64 - Windows 10.0 (19045.2))

CPU model: Intel(R) Core(TM) i9-10980XE CPU @ 3.00GHz, instruction set [SSE2|AVX|AVX2|AVX512]
Thread count: 18 physical cores, 36 logical processors, using up to 18 threads

Optimize a model with 1380 rows, 451 columns and 3390 nonzeros
Model fingerprint: 0xef64b321
Variable types: 31 continuous, 420 integer (420 binary)
Coefficient statistics:
  Matrix range     [1e+00, 1e+04]
  Objective range  [1e+00, 1e+00]
  Bounds range     [1e+00, 1e+04]
  RHS range        [1e+00, 1e+04]

Warning: Completing partial solution with 420 unfixed non-continuous variables out of 420
User MIP start produced solution with objective 62.1 (0.02s)
User MIP start produced solution with objective 62.1 (0.02s)
Loaded user MIP start with objective 62.1

Presolve removed 210 rows and 0 columns
Presolve time: 0.02s
Presolved: 1170 rows, 451 columns, 3553 nonzeros
Variable types: 31 continuous, 420 integer (420 binary)

Root relaxation: objective 3.200000e+01, 232 iterations, 0.00 seconds (0.00 work units)

    Nodes    |    Current Node    |     Objective Bounds      |     Work
 Expl Unexpl |  Obj  Depth IntInf | Incumbent    BestBd   Gap | It/Node Time

     0     0   32.00000    0   24   62.10000   32.00000  48.5%     -    0s
H    0     0                      61.0000000   32.00000  47.5%     -    0s
H    0     0                      60.0000000   32.00000  46.7%     -    0s
     0     0   32.00000    0   57   60.00000   32.00000  46.7%     -    0s
H    0     0                      59.0000000   32.00000  45.8%     -    0s
     0     0   32.00000    0   51   59.00000   32.00000  45.8%     -    0s
H    0     0                      56.0000000   32.00000  42.9%     -    0s
     0     0   32.00000    0   31   56.00000   32.00000  42.9%     -    0s
     0     0   32.00000    0   36   56.00000   32.00000  42.9%     -    0s
     0     0   32.00000    0   29   56.00000   32.00000  42.9%     -    0s
     0     0   32.00000    0   29   56.00000   32.00000  42.9%     -    0s
H    0     0                      54.0000000   32.00000  40.7%     -    0s
     0     0   32.00000    0   29   54.00000   32.00000  40.7%     -    0s
     0     0   32.00000    0   27   54.00000   32.00000  40.7%     -    0s
     0     2   32.00000    0   25   54.00000   32.00000  40.7%     -    0s
H    4     7                      53.0000000   32.00000  39.6%   114    0s
H   56    59                      49.0000000   32.00000  34.7%  29.1    0s
H  132   125                      49.0000000   32.00000  34.7%  22.1    0s
H  176   160                      48.0000000   32.00000  33.3%  29.8    0s
H  184   160                      48.0000000   32.00000  33.3%  29.4    0s
H  252   231                      47.0000000   32.00000  31.9%  24.8    0s
H  326   281                      46.0000000   32.00000  30.4%  25.1    2s
H  962   680                      46.0000000   32.00000  30.4%  18.3    3s
H  971   680                      45.0000000   32.00000  28.9%  18.5    3s
  1296   849 infeasible   23        45.00000   32.00000  28.9%  20.2    5s
  3306  1537   32.49087   26   78   45.00000   32.00000  28.9%  20.9   10s
  5243  2035 infeasible   24        45.00000   32.00000  28.9%   7.7   15s
  5910  2128   41.00000   23   40   45.00000   32.00000  28.9%  15.4   20s
  7514  2014   39.00000   16   61   45.00000   32.00000  28.9%  27.9   25s
  8477  2114   32.13835   20   56   45.00000   32.00000  28.9%  33.1   32s
  9466  2012   41.00000   27   54   45.00000   32.00000  28.9%  36.3   35s
 10706  1722   43.00000   23   56   45.00000   32.41980  28.0%  39.4   40s
 12979  2022   39.00000   31   57   45.00000   34.00000  24.4%  43.1   46s
 13878  2109 infeasible   26        45.00000   34.00000  24.4%  44.0   57s
 13907  2114 infeasible   28        45.00000   34.00000  24.4%  44.0   61s
 15015  2156   39.00000   26   39   45.00000   34.00000  24.4%  45.3   67s
 15579  2166   39.00000   24   48   45.00000   34.00000  24.4%  45.8   70s
 16899  2139 infeasible   28        45.00000   36.00000  20.0%  47.0   78s
 18189  2220 infeasible   26        45.00000   37.00000  17.8%  47.2   84s
 18287  2180   40.00000   26   61   45.00000   37.00000  17.8%  47.3   87s
 19448  2173   39.00000   26   61   45.00000   37.00000  17.8%  47.8   90s
 20362  2081   43.00000   29   53   45.00000   37.00000  17.8%  48.3   97s
 21364  2092   43.00000   33   66   45.00000   38.00000  15.6%  48.8  101s
 23810  2054   41.00000   26   54   45.00000   39.00000  13.3%  49.1  110s
 26891  1863 infeasible   28        45.00000   39.00000  13.3%  49.3  117s
 27058  1716 infeasible   29        45.00000   39.00000  13.3%  49.4  121s
 29453  1584   40.00000   35   59   45.00000   40.00000  11.1%  49.5  126s
 30991  1568   43.00000   26   57   45.00000   40.00000  11.1%  49.5  133s
 31035  1641   43.00000   27   55   45.00000   40.00000  11.1%  49.5  136s
 32931  1202 infeasible   27        45.00000   41.00000  8.89%  48.8  142s
 39013   745 infeasible   34        45.00000   41.00000  8.89%  48.4  148s
 39891   346 infeasible   28        45.00000   41.00000  8.89%  48.4  152s
 41600   322   43.00000   27   46   45.00000   41.00000  8.89%  48.4  156s
 43418     8   43.00000   27   41   45.00000   43.00000  4.44%  48.4  162s
 43468    63 infeasible   41        45.00000   43.00000  4.44%  48.3  168s

Cutting planes:
  Learned: 3226
  Gomory: 10
  Cover: 93
  Implied bound: 6
  Clique: 11
  MIR: 126
  StrongCG: 4
  Flow cover: 325
  RLT: 97
  Relax-and-lift: 54

Explored 43746 nodes (2207244 simplex iterations) in 168.60 seconds (183.93 work units)
Thread count was 18 (of 36 available processors)

Solution count 10: 45 45 46 ... 53

Optimal solution found (tolerance 1.00e-04)
Best objective 4.500000000000e+01, best bound 4.500000000000e+01, gap 0.0000%

Gurobi 11.0.0 (win64) logging started Tue Jul  2 15:18:45 2024

Set parameter LogFile to value "./Results/StripPacking-ManyRuns/Logs/SU-111-StripPacking-15-0.log"
Set parameter TimeLimit to value 3600
Set parameter Cuts to value 1
Set parameter Presolve to value 1
Set parameter Heuristics to value 1
Set parameter LPWarmStart to value 2
Gurobi Optimizer version 11.0.0 build v11.0.0rc2 (win64 - Windows 10.0 (19045.2))

CPU model: Intel(R) Core(TM) i9-10980XE CPU @ 3.00GHz, instruction set [SSE2|AVX|AVX2|AVX512]
Thread count: 18 physical cores, 36 logical processors, using up to 18 threads

Optimize a model with 1380 rows, 451 columns and 3390 nonzeros
Model fingerprint: 0xef64b321
Variable types: 31 continuous, 420 integer (420 binary)
Coefficient statistics:
  Matrix range     [1e+00, 1e+04]
  Objective range  [1e+00, 1e+00]
  Bounds range     [1e+00, 1e+04]
  RHS range        [1e+00, 1e+04]

Warning: Completing partial solution with 420 unfixed non-continuous variables out of 420
User MIP start produced solution with objective 62.1 (0.02s)
User MIP start produced solution with objective 62.1 (0.02s)
Loaded user MIP start with objective 62.1

Presolve removed 210 rows and 0 columns
Presolve time: 0.00s
Presolved: 1170 rows, 451 columns, 3553 nonzeros
Variable types: 31 continuous, 420 integer (420 binary)

Root relaxation: objective 3.200000e+01, 232 iterations, 0.00 seconds (0.00 work units)

    Nodes    |    Current Node    |     Objective Bounds      |     Work
 Expl Unexpl |  Obj  Depth IntInf | Incumbent    BestBd   Gap | It/Node Time

     0     0   32.00000    0   24   62.10000   32.00000  48.5%     -    0s
H    0     0                      61.0000000   32.00000  47.5%     -    0s
H    0     0                      60.0000000   32.00000  46.7%     -    0s
     0     0   32.00000    0   57   60.00000   32.00000  46.7%     -    0s
H    0     0                      59.0000000   32.00000  45.8%     -    0s
     0     0   32.00000    0   51   59.00000   32.00000  45.8%     -    0s
H    0     0                      56.0000000   32.00000  42.9%     -    0s
     0     0   32.00000    0   31   56.00000   32.00000  42.9%     -    0s
     0     0   32.00000    0   36   56.00000   32.00000  42.9%     -    0s
     0     0   32.00000    0   29   56.00000   32.00000  42.9%     -    0s
     0     0   32.00000    0   29   56.00000   32.00000  42.9%     -    0s
H    0     0                      54.0000000   32.00000  40.7%     -    0s
     0     0   32.00000    0   29   54.00000   32.00000  40.7%     -    0s
     0     0   32.00000    0   27   54.00000   32.00000  40.7%     -    0s
     0     2   32.00000    0   25   54.00000   32.00000  40.7%     -    0s
H    4     7                      53.0000000   32.00000  39.6%   114    0s
H   56    59                      49.0000000   32.00000  34.7%  29.1    0s
H  132   125                      49.0000000   32.00000  34.7%  22.1    0s
H  176   160                      48.0000000   32.00000  33.3%  29.8    0s
H  184   160                      48.0000000   32.00000  33.3%  29.4    0s
H  252   231                      47.0000000   32.00000  31.9%  24.8    1s
H  326   281                      46.0000000   32.00000  30.4%  25.1    2s
H  962   680                      46.0000000   32.00000  30.4%  18.3    3s
H  971   680                      45.0000000   32.00000  28.9%  18.5    3s
  1296   849 infeasible   23        45.00000   32.00000  28.9%  20.2    5s
  3306  1537   32.49087   26   78   45.00000   32.00000  28.9%  20.9   10s
  5203  2034 infeasible   23        45.00000   32.00000  28.9%   7.3   15s
  5703  2102   39.00000   18   86   45.00000   32.00000  28.9%  13.2   20s
  6704  2188   32.08888   23   96   45.00000   32.00000  28.9%  22.3   25s
  7980  2102 infeasible   25        45.00000   32.00000  28.9%  30.7   30s
  9466  2012   41.00000   27   54   45.00000   32.00000  28.9%  36.3   35s
 10706  1722   43.00000   23   56   45.00000   32.41980  28.0%  39.4   41s
 12979  2022   39.00000   31   57   45.00000   34.00000  24.4%  43.1   46s
 13757  2103     cutoff   23        45.00000   34.00000  24.4%  43.8   50s
 13878  2109 infeasible   26        45.00000   34.00000  24.4%  44.0   58s
 13907  2114 infeasible   28        45.00000   34.00000  24.4%  44.0   61s
 15015  2156   39.00000   26   39   45.00000   34.00000  24.4%  45.3   66s
 15579  2166   39.00000   24   48   45.00000   34.00000  24.4%  45.8   70s
 16899  2139 infeasible   28        45.00000   36.00000  20.0%  47.0   78s
 18189  2220 infeasible   26        45.00000   37.00000  17.8%  47.2   84s
 18287  2180   40.00000   26   61   45.00000   37.00000  17.8%  47.3   86s
 19448  2173   39.00000   26   61   45.00000   37.00000  17.8%  47.8   91s
 20362  2081   43.00000   29   53   45.00000   37.00000  17.8%  48.3   97s
 21364  2092   43.00000   33   66   45.00000   38.00000  15.6%  48.8  101s
 23810  2054   41.00000   26   54   45.00000   39.00000  13.3%  49.1  110s
 26891  1863 infeasible   28        45.00000   39.00000  13.3%  49.3  118s
 27058  1716 infeasible   29        45.00000   39.00000  13.3%  49.4  120s
 29453  1584   40.00000   35   59   45.00000   40.00000  11.1%  49.5  126s
 30991  1568   43.00000   26   57   45.00000   40.00000  11.1%  49.5  133s
 31035  1641   43.00000   27   55   45.00000   40.00000  11.1%  49.5  135s
 32931  1202 infeasible   27        45.00000   41.00000  8.89%  48.8  141s
 39013   745 infeasible   34        45.00000   41.00000  8.89%  48.4  148s
 39891   346 infeasible   28        45.00000   41.00000  8.89%  48.4  151s
 41600   322   43.00000   27   46   45.00000   41.00000  8.89%  48.4  156s
 43418     8   43.00000   27   41   45.00000   43.00000  4.44%  48.4  161s
 43468    63 infeasible   41        45.00000   43.00000  4.44%  48.3  167s

Cutting planes:
  Learned: 3226
  Gomory: 10
  Cover: 93
  Implied bound: 6
  Clique: 11
  MIR: 126
  StrongCG: 4
  Flow cover: 325
  RLT: 97
  Relax-and-lift: 54

Explored 43746 nodes (2207244 simplex iterations) in 168.15 seconds (183.93 work units)
Thread count was 18 (of 36 available processors)

Solution count 10: 45 45 46 ... 53

Optimal solution found (tolerance 1.00e-04)
Best objective 4.500000000000e+01, best bound 4.500000000000e+01, gap 0.0000%
